100
128
59
56
56
59
2
2
13
1
40
43
54
30
36
58
37
20
5
37
9
47
26
13
15
40
44
8
22
21
41
53
23
51
19
52
40
58
19
20
58
62
58
30
52
32
43
26
26
40
17
39
34
38
2
20
15
15
8
15
13
41
48
28
45
50
24
32
30
37
22
38
6
35
48
24
23
32
59
36
37
18
35
55
2
22
39
31
63
64
41
40
64
46
64
60
26
62
29
9
35
64